1
1000
120
487 1
484 1
483 1
482 1
479 1
473 1
472 1
472 1
469 1
465 1
463 1
458 1
453 1
446 1
446 1
443 1
443 1
443 1
440 1
433 1
426 1
426 1
425 1
422 1
411 1
408 1
404 1
400 1
400 1
387 1
387 1
386 1
386 1
378 1
373 1
372 1
367 1
365 1
363 1
363 1
363 1
362 1
362 1
357 1
354 1
344 1
337 1
334 1
333 1
332 1
330 1
322 1
322 1
322 1
320 1
317 1
310 1
307 1
306 1
306 1
305 1
304 1
303 1
303 1
303 1
302 1
296 1
296 1
294 1
292 1
287 1
285 1
282 1
281 1
280 1
279 1
279 1
278 1
277 1
277 1
276 1
274 1
274 1
274 1
272 1
271 1
271 1
270 1
270 1
270 1
269 1
267 1
267 1
267 1
266 1
266 1
264 1
264 1
263 1
262 1
262 1
261 1
261 1
260 1
258 1
258 1
257 1
256 1
256 1
255 1
255 1
252 1
252 1
251 1
251 1
251 1
251 1
250 1
250 1
250 1
